# Solution for model r5_t9_m0_4 Batch Number: 2
# Finished Task: 9 / 9
# Makespan: 536.0, Total Distance: 223.0, Total Time: 0.4385
# R O S F Batch
0 0 12 0.0 0.0 -1
1 1 9 0.0 0.0 -1
2 2 10 0.0 0.0 -1
3 3 11 0.0 0.0 -1
4 4 5 0.0 0.0 -1
5 4 -1 384.0 415.0 0
6 3 -1 462.0 501.0 1
7 1 8 414.0 441.0 1
8 1 -1 501.0 536.0 1
9 1 13 310.0 330.0 0
10 2 -1 441.0 462.0 1
11 3 6 378.0 415.0 0
12 0 -1 275.0 310.0 0
13 1 7 371.0 402.0 0
